results/res_prop_muc/res_Cimatti_mathsat_cores/QF_UF/SEQ038_size6.smt.smt2.out

real	0m21.328s
user	0m21.149s
sys	0m0.134s
