results/res_prop_muc/res_Cimatti_mathsat_cores/QF_UF/SEQ038_size6.smt.smt2.res
unsat
( _c0
  _c1
  _c10
  _c100
  _c101
  _c102
  _c103
  _c104
  _c105
  _c106
  _c107
  _c108
  _c109
  _c11
  _c110
  _c111
  _c112
  _c113
  _c114
  _c115
  _c116
  _c117
  _c118
  _c119
  _c12
  _c120
  _c121
  _c122
  _c123
  _c124
  _c125
  _c126
  _c127
  _c128
  _c129
  _c13
  _c130
  _c131
  _c132
  _c133
  _c134
  _c135
  _c136
  _c137
  _c138
  _c139
  _c14
  _c140
  _c141
  _c142
  _c143
  _c144
  _c145
  _c146
  _c147
  _c148
  _c149
  _c15
  _c150
  _c151
  _c152
  _c153
  _c154
  _c155
  _c156
  _c157
  _c159
  _c160
  _c161
  _c162
  _c163
  _c164
  _c165
  _c166
  _c167
  _c17
  _c170
  _c171
  _c172
  _c177
  _c18
  _c181
  _c182
  _c19
  _c194
  _c195
  _c196
  _c197
  _c198
  _c199
  _c20
  _c200
  _c201
  _c202
  _c203
  _c204
  _c205
  _c206
  _c207
  _c208
  _c209
  _c21
  _c210
  _c211
  _c212
  _c213
  _c214
  _c215
  _c216
  _c217
  _c218
  _c219
  _c22
  _c220
  _c221
  _c222
  _c223
  _c224
  _c225
  _c226
  _c227
  _c228
  _c229
  _c236
  _c237
  _c238
  _c239
  _c24
  _c240
  _c241
  _c242
  _c243
  _c244
  _c245
  _c246
  _c247
  _c248
  _c249
  _c25
  _c250
  _c251
  _c252
  _c253
  _c254
  _c255
  _c256
  _c257
  _c258
  _c259
  _c26
  _c260
  _c261
  _c262
  _c263
  _c264
  _c265
  _c267
  _c268
  _c269
  _c27
  _c270
  _c271
  _c278
  _c279
  _c28
  _c280
  _c281
  _c282
  _c283
  _c284
  _c286
  _c287
  _c288
  _c289
  _c29
  _c290
  _c292
  _c293
  _c294
  _c295
  _c296
  _c297
  _c298
  _c299
  _c3
  _c300
  _c301
  _c303
  _c304
  _c305
  _c306
  _c307
  _c31
  _c310
  _c311
  _c312
  _c313
  _c32
  _c320
  _c323
  _c324
  _c325
  _c326
  _c328
  _c329
  _c33
  _c330
  _c331
  _c332
  _c333
  _c334
  _c335
  _c336
  _c337
  _c339
  _c34
  _c340
  _c341
  _c342
  _c343
  _c346
  _c347
  _c348
  _c349
  _c35
  _c353
  _c354
  _c355
  _c36
  _c366
  _c367
  _c368
  _c369
  _c370
  _c371
  _c372
  _c373
  _c375
  _c376
  _c377
  _c378
  _c379
  _c382
  _c383
  _c384
  _c385
  _c389
  _c39
  _c390
  _c391
  _c396
  _c397
  _c4
  _c40
  _c404
  _c405
  _c406
  _c407
  _c408
  _c409
  _c41
  _c410
  _c411
  _c412
  _c413
  _c414
  _c415
  _c416
  _c418
  _c419
  _c42
  _c420
  _c421
  _c422
  _c423
  _c425
  _c426
  _c427
  _c428
  _c429
  _c43
  _c430
  _c432
  _c433
  _c434
  _c435
  _c436
  _c437
  _c439
  _c44
  _c440
  _c441
  _c442
  _c443
  _c444
  _c445
  _c447
  _c448
  _c449
  _c45
  _c450
  _c451
  _c453
  _c454
  _c455
  _c456
  _c457
  _c459
  _c46
  _c460
  _c461
  _c462
  _c463
  _c464
  _c465
  _c466
  _c467
  _c468
  _c469
  _c47
  _c470
  _c471
  _c472
  _c473
  _c474
  _c475
  _c477
  _c478
  _c479
  _c480
  _c481
  _c483
  _c484
  _c485
  _c486
  _c487
  _c490
  _c491
  _c492
  _c493
  _c496
  _c497
  _c498
  _c499
  _c5
  _c50
  _c500
  _c501
  _c502
  _c503
  _c504
  _c505
  _c506
  _c507
  _c508
  _c509
  _c51
  _c510
  _c511
  _c512
  _c513
  _c514
  _c515
  _c516
  _c517
  _c519
  _c52
  _c520
  _c521
  _c522
  _c523
  _c526
  _c527
  _c528
  _c529
  _c533
  _c534
  _c535
  _c536
  _c537
  _c538
  _c539
  _c540
  _c541
  _c542
  _c544
  _c545
  _c546
  _c547
  _c548
  _c550
  _c551
  _c552
  _c553
  _c555
  _c556
  _c557
  _c558
  _c559
  _c56
  _c562
  _c563
  _c564
  _c565
  _c569
  _c57
  _c570
  _c571
  _c576
  _c577
  _c578
  _c580
  _c581
  _c582
  _c583
  _c584
  _c586
  _c587
  _c588
  _c589
  _c591
  _c592
  _c593
  _c594
  _c595
  _c598
  _c599
  _c6
  _c600
  _c601
  _c605
  _c606
  _c607
  _c612
  _c613
  _c619
  _c62
  _c625
  _c627
  _c628
  _c629
  _c630
  _c631
  _c634
  _c635
  _c636
  _c637
  _c641
  _c642
  _c643
  _c648
  _c649
  _c655
  _c662
  _c663
  _c664
  _c665
  _c666
  _c667
  _c669
  _c670
  _c671
  _c672
  _c673
  _c674
  _c676
  _c677
  _c678
  _c679
  _c68
  _c680
  _c681
  _c683
  _c684
  _c685
  _c686
  _c687
  _c688
  _c69
  _c690
  _c691
  _c692
  _c693
  _c694
  _c695
  _c697
  _c698
  _c699
  _c7
  _c70
  _c700
  _c701
  _c702
  _c705
  _c706
  _c707
  _c708
  _c709
  _c71
  _c713
  _c717
  _c719
  _c72
  _c720
  _c721
  _c722
  _c726
  _c727
  _c729
  _c73
  _c733
  _c735
  _c742
  _c745
  _c746
  _c748
  _c75
  _c750
  _c751
  _c755
  _c756
  _c757
  _c758
  _c759
  _c76
  _c762
  _c764
  _c769
  _c77
  _c770
  _c774
  _c777
  _c778
  _c779
  _c78
  _c780
  _c781
  _c782
  _c783
  _c784
  _c787
  _c788
  _c789
  _c79
  _c790
  _c791
  _c792
  _c793
  _c794
  _c795
  _c796
  _c797
  _c798
  _c799
  _c8
  _c80
  _c800
  _c82
  _c83
  _c84
  _c85
  _c86
  _c87
  _c89
  _c90
  _c91
  _c92
  _c93
  _c94
  _c96
  _c97
  _c98
  _c99 )
